Minimize
 obj: 0 X_0_1
Subject To
 out_0:
  + 1 X_0_1 + 1 X_0_2 + 1 X_0_3 + 1 X_0_4 + 1 X_0_5 + 1 X_0_6 + 1 X_0_7 + 1 X_0_8
  + 1 X_0_9
  = 1
 in_0:
  + 1 X_1_0 + 1 X_2_0 + 1 X_3_0 + 1 X_4_0 + 1 X_5_0 + 1 X_6_0 + 1 X_7_0 + 1 X_8_0
  + 1 X_9_0
  = 1
 out_1:
  + 1 X_1_0 + 1 X_1_2 + 1 X_1_3 + 1 X_1_4 + 1 X_1_5 + 1 X_1_6 + 1 X_1_7 + 1 X_1_8
  + 1 X_1_9
  = 1
 in_1:
  + 1 X_0_1 + 1 X_2_1 + 1 X_3_1 + 1 X_4_1 + 1 X_5_1 + 1 X_6_1 + 1 X_7_1 + 1 X_8_1
  + 1 X_9_1
  = 1
 out_2:
  + 1 X_2_0 + 1 X_2_1 + 1 X_2_3 + 1 X_2_4 + 1 X_2_5 + 1 X_2_6 + 1 X_2_7 + 1 X_2_8
  + 1 X_2_9
  = 1
 in_2:
  + 1 X_0_2 + 1 X_1_2 + 1 X_3_2 + 1 X_4_2 + 1 X_5_2 + 1 X_6_2 + 1 X_7_2 + 1 X_8_2
  + 1 X_9_2
  = 1
 out_3:
  + 1 X_3_0 + 1 X_3_1 + 1 X_3_2 + 1 X_3_4 + 1 X_3_5 + 1 X_3_6 + 1 X_3_7 + 1 X_3_8
  + 1 X_3_9
  = 1
 in_3:
  + 1 X_0_3 + 1 X_1_3 + 1 X_2_3 + 1 X_4_3 + 1 X_5_3 + 1 X_6_3 + 1 X_7_3 + 1 X_8_3
  + 1 X_9_3
  = 1
 out_4:
  + 1 X_4_0 + 1 X_4_1 + 1 X_4_2 + 1 X_4_3 + 1 X_4_5 + 1 X_4_6 + 1 X_4_7 + 1 X_4_8
  + 1 X_4_9
  = 1
 in_4:
  + 1 X_0_4 + 1 X_1_4 + 1 X_2_4 + 1 X_3_4 + 1 X_5_4 + 1 X_6_4 + 1 X_7_4 + 1 X_8_4
  + 1 X_9_4
  = 1
 out_5:
  + 1 X_5_0 + 1 X_5_1 + 1 X_5_2 + 1 X_5_3 + 1 X_5_4 + 1 X_5_6 + 1 X_5_7 + 1 X_5_8
  + 1 X_5_9
  = 1
 in_5:
  + 1 X_0_5 + 1 X_1_5 + 1 X_2_5 + 1 X_3_5 + 1 X_4_5 + 1 X_6_5 + 1 X_7_5 + 1 X_8_5
  + 1 X_9_5
  = 1
 out_6:
  + 1 X_6_0 + 1 X_6_1 + 1 X_6_2 + 1 X_6_3 + 1 X_6_4 + 1 X_6_5 + 1 X_6_7 + 1 X_6_8
  + 1 X_6_9
  = 1
 in_6:
  + 1 X_0_6 + 1 X_1_6 + 1 X_2_6 + 1 X_3_6 + 1 X_4_6 + 1 X_5_6 + 1 X_7_6 + 1 X_8_6
  + 1 X_9_6
  = 1
 out_7:
  + 1 X_7_0 + 1 X_7_1 + 1 X_7_2 + 1 X_7_3 + 1 X_7_4 + 1 X_7_5 + 1 X_7_6 + 1 X_7_8
  + 1 X_7_9
  = 1
 in_7:
  + 1 X_0_7 + 1 X_1_7 + 1 X_2_7 + 1 X_3_7 + 1 X_4_7 + 1 X_5_7 + 1 X_6_7 + 1 X_8_7
  + 1 X_9_7
  = 1
 out_8:
  + 1 X_8_0 + 1 X_8_1 + 1 X_8_2 + 1 X_8_3 + 1 X_8_4 + 1 X_8_5 + 1 X_8_6 + 1 X_8_7
  + 1 X_8_9
  = 1
 in_8:
  + 1 X_0_8 + 1 X_1_8 + 1 X_2_8 + 1 X_3_8 + 1 X_4_8 + 1 X_5_8 + 1 X_6_8 + 1 X_7_8
  + 1 X_9_8
  = 1
 out_9:
  + 1 X_9_0 + 1 X_9_1 + 1 X_9_2 + 1 X_9_3 + 1 X_9_4 + 1 X_9_5 + 1 X_9_6 + 1 X_9_7
  + 1 X_9_8
  = 1
 in_9:
  + 1 X_0_9 + 1 X_1_9 + 1 X_2_9 + 1 X_3_9 + 1 X_4_9 + 1 X_5_9 + 1 X_6_9 + 1 X_7_9
  + 1 X_8_9
  = 1
 mtz_1_2:
  + 1 U1 - 1 U2 + 9 X_1_2
  <= 8
 mtz_1_3:
  + 1 U1 - 1 U3 + 9 X_1_3
  <= 8
 mtz_1_4:
  + 1 U1 - 1 U4 + 9 X_1_4
  <= 8
 mtz_1_5:
  + 1 U1 - 1 U5 + 9 X_1_5
  <= 8
 mtz_1_6:
  + 1 U1 - 1 U6 + 9 X_1_6
  <= 8
 mtz_1_7:
  + 1 U1 - 1 U7 + 9 X_1_7
  <= 8
 mtz_1_8:
  + 1 U1 - 1 U8 + 9 X_1_8
  <= 8
 mtz_1_9:
  + 1 U1 - 1 U9 + 9 X_1_9
  <= 8
 mtz_2_1:
  + 1 U2 - 1 U1 + 9 X_2_1
  <= 8
 mtz_2_3:
  + 1 U2 - 1 U3 + 9 X_2_3
  <= 8
 mtz_2_4:
  + 1 U2 - 1 U4 + 9 X_2_4
  <= 8
 mtz_2_5:
  + 1 U2 - 1 U5 + 9 X_2_5
  <= 8
 mtz_2_6:
  + 1 U2 - 1 U6 + 9 X_2_6
  <= 8
 mtz_2_7:
  + 1 U2 - 1 U7 + 9 X_2_7
  <= 8
 mtz_2_8:
  + 1 U2 - 1 U8 + 9 X_2_8
  <= 8
 mtz_2_9:
  + 1 U2 - 1 U9 + 9 X_2_9
  <= 8
 mtz_3_1:
  + 1 U3 - 1 U1 + 9 X_3_1
  <= 8
 mtz_3_2:
  + 1 U3 - 1 U2 + 9 X_3_2
  <= 8
 mtz_3_4:
  + 1 U3 - 1 U4 + 9 X_3_4
  <= 8
 mtz_3_5:
  + 1 U3 - 1 U5 + 9 X_3_5
  <= 8
 mtz_3_6:
  + 1 U3 - 1 U6 + 9 X_3_6
  <= 8
 mtz_3_7:
  + 1 U3 - 1 U7 + 9 X_3_7
  <= 8
 mtz_3_8:
  + 1 U3 - 1 U8 + 9 X_3_8
  <= 8
 mtz_3_9:
  + 1 U3 - 1 U9 + 9 X_3_9
  <= 8
 mtz_4_1:
  + 1 U4 - 1 U1 + 9 X_4_1
  <= 8
 mtz_4_2:
  + 1 U4 - 1 U2 + 9 X_4_2
  <= 8
 mtz_4_3:
  + 1 U4 - 1 U3 + 9 X_4_3
  <= 8
 mtz_4_5:
  + 1 U4 - 1 U5 + 9 X_4_5
  <= 8
 mtz_4_6:
  + 1 U4 - 1 U6 + 9 X_4_6
  <= 8
 mtz_4_7:
  + 1 U4 - 1 U7 + 9 X_4_7
  <= 8
 mtz_4_8:
  + 1 U4 - 1 U8 + 9 X_4_8
  <= 8
 mtz_4_9:
  + 1 U4 - 1 U9 + 9 X_4_9
  <= 8
 mtz_5_1:
  + 1 U5 - 1 U1 + 9 X_5_1
  <= 8
 mtz_5_2:
  + 1 U5 - 1 U2 + 9 X_5_2
  <= 8
 mtz_5_3:
  + 1 U5 - 1 U3 + 9 X_5_3
  <= 8
 mtz_5_4:
  + 1 U5 - 1 U4 + 9 X_5_4
  <= 8
 mtz_5_6:
  + 1 U5 - 1 U6 + 9 X_5_6
  <= 8
 mtz_5_7:
  + 1 U5 - 1 U7 + 9 X_5_7
  <= 8
 mtz_5_8:
  + 1 U5 - 1 U8 + 9 X_5_8
  <= 8
 mtz_5_9:
  + 1 U5 - 1 U9 + 9 X_5_9
  <= 8
 mtz_6_1:
  + 1 U6 - 1 U1 + 9 X_6_1
  <= 8
 mtz_6_2:
  + 1 U6 - 1 U2 + 9 X_6_2
  <= 8
 mtz_6_3:
  + 1 U6 - 1 U3 + 9 X_6_3
  <= 8
 mtz_6_4:
  + 1 U6 - 1 U4 + 9 X_6_4
  <= 8
 mtz_6_5:
  + 1 U6 - 1 U5 + 9 X_6_5
  <= 8
 mtz_6_7:
  + 1 U6 - 1 U7 + 9 X_6_7
  <= 8
 mtz_6_8:
  + 1 U6 - 1 U8 + 9 X_6_8
  <= 8
 mtz_6_9:
  + 1 U6 - 1 U9 + 9 X_6_9
  <= 8
 mtz_7_1:
  + 1 U7 - 1 U1 + 9 X_7_1
  <= 8
 mtz_7_2:
  + 1 U7 - 1 U2 + 9 X_7_2
  <= 8
 mtz_7_3:
  + 1 U7 - 1 U3 + 9 X_7_3
  <= 8
 mtz_7_4:
  + 1 U7 - 1 U4 + 9 X_7_4
  <= 8
 mtz_7_5:
  + 1 U7 - 1 U5 + 9 X_7_5
  <= 8
 mtz_7_6:
  + 1 U7 - 1 U6 + 9 X_7_6
  <= 8
 mtz_7_8:
  + 1 U7 - 1 U8 + 9 X_7_8
  <= 8
 mtz_7_9:
  + 1 U7 - 1 U9 + 9 X_7_9
  <= 8
 mtz_8_1:
  + 1 U8 - 1 U1 + 9 X_8_1
  <= 8
 mtz_8_2:
  + 1 U8 - 1 U2 + 9 X_8_2
  <= 8
 mtz_8_3:
  + 1 U8 - 1 U3 + 9 X_8_3
  <= 8
 mtz_8_4:
  + 1 U8 - 1 U4 + 9 X_8_4
  <= 8
 mtz_8_5:
  + 1 U8 - 1 U5 + 9 X_8_5
  <= 8
 mtz_8_6:
  + 1 U8 - 1 U6 + 9 X_8_6
  <= 8
 mtz_8_7:
  + 1 U8 - 1 U7 + 9 X_8_7
  <= 8
 mtz_8_9:
  + 1 U8 - 1 U9 + 9 X_8_9
  <= 8
 mtz_9_1:
  + 1 U9 - 1 U1 + 9 X_9_1
  <= 8
 mtz_9_2:
  + 1 U9 - 1 U2 + 9 X_9_2
  <= 8
 mtz_9_3:
  + 1 U9 - 1 U3 + 9 X_9_3
  <= 8
 mtz_9_4:
  + 1 U9 - 1 U4 + 9 X_9_4
  <= 8
 mtz_9_5:
  + 1 U9 - 1 U5 + 9 X_9_5
  <= 8
 mtz_9_6:
  + 1 U9 - 1 U6 + 9 X_9_6
  <= 8
 mtz_9_7:
  + 1 U9 - 1 U7 + 9 X_9_7
  <= 8
 mtz_9_8:
  + 1 U9 - 1 U8 + 9 X_9_8
  <= 8
 obj1:
  + 276 X_0_1 + 375 X_0_2 + 468 X_0_3 + 466 X_0_4 + 436 X_0_5 + 466 X_0_6 + 316 X_0_7 + 346 X_0_8
  + 235 X_0_9 + 276 X_1_0 + 524 X_1_2 + 617 X_1_3 + 636 X_1_4 + 247 X_1_5 + 191 X_1_6 + 591 X_1_7
  + 368 X_1_8 + 184 X_1_9 + 375 X_2_0 + 524 X_2_1 + 95 X_2_3 + 113 X_2_4 + 758 X_2_5 + 694 X_2_6
  + 444 X_2_7 + 218 X_2_8 + 348 X_2_9 + 468 X_3_0 + 617 X_3_1 + 95 X_3_2 + 51 X_3_4 + 852 X_3_5
  + 783 X_3_6 + 500 X_3_7 + 288 X_3_8 + 438 X_3_9 + 466 X_4_0 + 636 X_4_1 + 113 X_4_2 + 51 X_4_3
  + 866 X_4_5 + 807 X_4_6 + 467 X_4_7 + 324 X_4_8 + 461 X_4_9 + 436 X_5_0 + 247 X_5_1 + 758 X_5_2
  + 852 X_5_3 + 866 X_5_4 + 211 X_5_6 + 714 X_5_7 + 615 X_5_8 + 430 X_5_9 + 466 X_6_0 + 191 X_6_1
  + 694 X_6_2 + 783 X_6_3 + 807 X_6_4 + 211 X_6_5 + 779 X_6_7 + 509 X_6_8 + 346 X_6_9 + 316 X_7_0
  + 591 X_7_1 + 444 X_7_2 + 500 X_7_3 + 467 X_7_4 + 714 X_7_5 + 779 X_7_6 + 557 X_7_8 + 526 X_7_9
  + 346 X_8_0 + 368 X_8_1 + 218 X_8_2 + 288 X_8_3 + 324 X_8_4 + 615 X_8_5 + 509 X_8_6 + 557 X_8_7
  + 185 X_8_9 + 235 X_9_0 + 184 X_9_1 + 348 X_9_2 + 438 X_9_3 + 461 X_9_4 + 430 X_9_5 + 346 X_9_6
  + 526 X_9_7 + 185 X_9_8
  <= 1
 obj2:
  + 335 X_0_1 + 259 X_0_2 + 256 X_0_3 + 638 X_0_4 + 723 X_0_5 + 1011 X_0_6 + 610 X_0_7 + 397 X_0_8
  + 226 X_0_9 + 335 X_1_0 + 394 X_1_2 + 429 X_1_3 + 428 X_1_4 + 592 X_1_5 + 759 X_1_6 + 287 X_1_7
  + 288 X_1_8 + 384 X_1_9 + 259 X_2_0 + 394 X_2_1 + 45 X_2_3 + 485 X_2_4 + 509 X_2_5 + 858 X_2_6
  + 582 X_2_7 + 245 X_2_8 + 33 X_2_9 + 256 X_3_0 + 429 X_3_1 + 45 X_3_2 + 528 X_3_4 + 544 X_3_5
  + 900 X_3_6 + 626 X_3_7 + 290 X_3_8 + 45 X_3_9 + 638 X_4_0 + 428 X_4_1 + 485 X_4_2 + 528 X_4_3
  + 204 X_4_5 + 377 X_4_6 + 300 X_4_7 + 247 X_4_8 + 506 X_4_9 + 723 X_5_0 + 592 X_5_1 + 509 X_5_2
  + 544 X_5_3 + 204 X_5_4 + 409 X_5_6 + 504 X_5_7 + 335 X_5_8 + 539 X_5_9 + 1011 X_6_0 + 759 X_6_1
  + 858 X_6_2 + 900 X_6_3 + 377 X_6_4 + 409 X_6_5 + 516 X_6_7 + 625 X_6_8 + 881 X_6_9 + 610 X_7_0
  + 287 X_7_1 + 582 X_7_2 + 626 X_7_3 + 300 X_7_4 + 504 X_7_5 + 516 X_7_6 + 362 X_7_8 + 587 X_7_9
  + 397 X_8_0 + 288 X_8_1 + 245 X_8_2 + 290 X_8_3 + 247 X_8_4 + 335 X_8_5 + 625 X_8_6 + 362 X_8_7
  + 263 X_8_9 + 226 X_9_0 + 384 X_9_1 + 33 X_9_2 + 45 X_9_3 + 506 X_9_4 + 539 X_9_5 + 881 X_9_6
  + 587 X_9_7 + 263 X_9_8
  <= 2
 obj3:
  + 688 X_0_1 + 319 X_0_2 + 414 X_0_3 + 556 X_0_4 + 461 X_0_5 + 1132 X_0_6 + 399 X_0_7 + 480 X_0_8
  + 944 X_0_9 + 688 X_1_0 + 616 X_1_2 + 832 X_1_3 + 918 X_1_4 + 283 X_1_5 + 914 X_1_6 + 306 X_1_7
  + 471 X_1_8 + 264 X_1_9 + 319 X_2_0 + 616 X_2_1 + 217 X_2_3 + 327 X_2_4 + 333 X_2_5 + 820 X_2_6
  + 439 X_2_7 + 212 X_2_8 + 827 X_2_9 + 414 X_3_0 + 832 X_3_1 + 217 X_3_2 + 141 X_3_4 + 549 X_3_5
  + 863 X_3_6 + 648 X_3_7 + 394 X_3_8 + 1033 X_3_9 + 556 X_4_0 + 918 X_4_1 + 327 X_4_2 + 141 X_4_3
  + 639 X_4_5 + 798 X_4_6 + 766 X_4_7 + 454 X_4_8 + 1096 X_4_9 + 461 X_5_0 + 283 X_5_1 + 333 X_5_2
  + 549 X_5_3 + 639 X_5_4 + 810 X_5_6 + 218 X_5_7 + 211 X_5_8 + 505 X_5_9 + 1132 X_6_0 + 914 X_6_1
  + 820 X_6_2 + 863 X_6_3 + 798 X_6_4 + 810 X_6_5 + 1027 X_6_7 + 666 X_6_8 + 883 X_6_9 + 399 X_7_0
  + 306 X_7_1 + 439 X_7_2 + 648 X_7_3 + 766 X_7_4 + 218 X_7_5 + 1027 X_7_6 + 406 X_7_8 + 570 X_7_9
  + 480 X_8_0 + 471 X_8_1 + 212 X_8_2 + 394 X_8_3 + 454 X_8_4 + 211 X_8_5 + 666 X_8_6 + 406 X_8_7
  + 644 X_8_9 + 944 X_9_0 + 264 X_9_1 + 827 X_9_2 + 1033 X_9_3 + 1096 X_9_4 + 505 X_9_5 + 883 X_9_6
  + 570 X_9_7 + 644 X_9_8
  <= 3
 obj4:
  + 929 X_0_1 + 544 X_0_2 + 741 X_0_3 + 745 X_0_4 + 891 X_0_5 + 125 X_0_6 + 428 X_0_7 + 139 X_0_8
  + 664 X_0_9 + 929 X_1_0 + 774 X_1_2 + 622 X_1_3 + 482 X_1_4 + 42 X_1_5 + 1052 X_1_6 + 504 X_1_7
  + 820 X_1_8 + 836 X_1_9 + 544 X_2_0 + 774 X_2_1 + 981 X_2_3 + 903 X_2_4 + 732 X_2_5 + 641 X_2_6
  + 431 X_2_7 + 417 X_2_8 + 1032 X_2_9 + 741 X_3_0 + 622 X_3_1 + 981 X_3_2 + 140 X_3_4 + 614 X_3_5
  + 820 X_3_6 + 550 X_3_7 + 724 X_3_8 + 240 X_3_9 + 745 X_4_0 + 482 X_4_1 + 903 X_4_2 + 140 X_4_3
  + 474 X_4_5 + 840 X_4_6 + 475 X_4_7 + 701 X_4_8 + 368 X_4_9 + 891 X_5_0 + 42 X_5_1 + 732 X_5_2
  + 614 X_5_3 + 474 X_5_4 + 1013 X_5_6 + 464 X_5_7 + 779 X_5_8 + 821 X_5_9 + 125 X_6_0 + 1052 X_6_1
  + 641 X_6_2 + 820 X_6_3 + 840 X_6_4 + 1013 X_6_5 + 553 X_6_7 + 259 X_6_8 + 710 X_6_9 + 428 X_7_0
  + 504 X_7_1 + 431 X_7_2 + 550 X_7_3 + 475 X_7_4 + 464 X_7_5 + 553 X_7_6 + 315 X_7_8 + 627 X_7_9
  + 139 X_8_0 + 820 X_8_1 + 417 X_8_2 + 724 X_8_3 + 701 X_8_4 + 779 X_8_5 + 259 X_8_6 + 315 X_8_7
  + 693 X_8_9 + 664 X_9_0 + 836 X_9_1 + 1032 X_9_2 + 240 X_9_3 + 368 X_9_4 + 821 X_9_5 + 710 X_9_6
  + 627 X_9_7 + 693 X_9_8
  <= 4
 obj5:
  + 311 X_0_1 + 333 X_0_2 + 655 X_0_3 + 602 X_0_4 + 10 X_0_5 + 855 X_0_6 + 637 X_0_7 + 255 X_0_8
  + 249 X_0_9 + 311 X_1_0 + 410 X_1_2 + 508 X_1_3 + 613 X_1_4 + 303 X_1_5 + 662 X_1_6 + 804 X_1_7
  + 178 X_1_8 + 184 X_1_9 + 333 X_2_0 + 410 X_2_1 + 899 X_2_3 + 917 X_2_4 + 336 X_2_5 + 1070 X_2_6
  + 967 X_2_7 + 231 X_2_8 + 225 X_2_9 + 655 X_3_0 + 508 X_3_1 + 899 X_3_2 + 311 X_3_4 + 646 X_3_5
  + 213 X_3_6 + 668 X_3_7 + 678 X_3_8 + 682 X_3_9 + 602 X_4_0 + 613 X_4_1 + 917 X_4_2 + 311 X_4_3
  + 596 X_4_5 + 490 X_4_6 + 363 X_4_7 + 738 X_4_8 + 738 X_4_9 + 10 X_5_0 + 303 X_5_1 + 336 X_5_2
  + 646 X_5_3 + 596 X_5_4 + 845 X_5_6 + 636 X_5_7 + 251 X_5_8 + 245 X_5_9 + 855 X_6_0 + 662 X_6_1
  + 1070 X_6_2 + 213 X_6_3 + 490 X_6_4 + 845 X_6_5 + 853 X_6_7 + 840 X_6_8 + 846 X_6_9 + 637 X_7_0
  + 804 X_7_1 + 967 X_7_2 + 668 X_7_3 + 363 X_7_4 + 636 X_7_5 + 853 X_7_6 + 861 X_7_8 + 858 X_7_9
  + 255 X_8_0 + 178 X_8_1 + 231 X_8_2 + 678 X_8_3 + 738 X_8_4 + 251 X_8_5 + 840 X_8_6 + 861 X_8_7
  + 8 X_8_9 + 249 X_9_0 + 184 X_9_1 + 225 X_9_2 + 682 X_9_3 + 738 X_9_4 + 245 X_9_5 + 846 X_9_6
  + 858 X_9_7 + 8 X_9_8
  <= 5
Bounds
 1 <= U1 <= 9
 1 <= U2 <= 9
 1 <= U3 <= 9
 1 <= U4 <= 9
 1 <= U5 <= 9
 1 <= U6 <= 9
 1 <= U7 <= 9
 1 <= U8 <= 9
 1 <= U9 <= 9
Binary
 X_0_1
 X_0_2
 X_0_3
 X_0_4
 X_0_5
 X_0_6
 X_0_7
 X_0_8
 X_0_9
 X_1_0
 X_1_2
 X_1_3
 X_1_4
 X_1_5
 X_1_6
 X_1_7
 X_1_8
 X_1_9
 X_2_0
 X_2_1
 X_2_3
 X_2_4
 X_2_5
 X_2_6
 X_2_7
 X_2_8
 X_2_9
 X_3_0
 X_3_1
 X_3_2
 X_3_4
 X_3_5
 X_3_6
 X_3_7
 X_3_8
 X_3_9
 X_4_0
 X_4_1
 X_4_2
 X_4_3
 X_4_5
 X_4_6
 X_4_7
 X_4_8
 X_4_9
 X_5_0
 X_5_1
 X_5_2
 X_5_3
 X_5_4
 X_5_6
 X_5_7
 X_5_8
 X_5_9
 X_6_0
 X_6_1
 X_6_2
 X_6_3
 X_6_4
 X_6_5
 X_6_7
 X_6_8
 X_6_9
 X_7_0
 X_7_1
 X_7_2
 X_7_3
 X_7_4
 X_7_5
 X_7_6
 X_7_8
 X_7_9
 X_8_0
 X_8_1
 X_8_2
 X_8_3
 X_8_4
 X_8_5
 X_8_6
 X_8_7
 X_8_9
 X_9_0
 X_9_1
 X_9_2
 X_9_3
 X_9_4
 X_9_5
 X_9_6
 X_9_7
 X_9_8
End
